CMPL model generation - running

CMPL version: 1.11.0
Authors: Thomas Schleiff, Mike Steglich
Distributed under the GPLv3 

create model instance ...
write model instance ...
CMPL model generation - finished

Solver - running


Welcome to IBM(R) ILOG(R) CPLEX(R) Interactive Optimizer 12.7.1.0
  with Simplex, Mixed Integer & Barrier Optimizers
5725-A06 5725-A29 5724-Y48 5724-Y49 5724-Y54 5724-Y55 5655-Y21
Copyright IBM Corp. 1988, 2017.  All Rights Reserved.

Type 'help' for a list of available commands.
Type 'help' followed by a command name for more
information on commands.

CPLEX> Specified objective sense: MINIMIZE
Selected objective  name:  line[1]
Selected RHS        name:  RHS
Selected bound      name:  BOUND
Problem '/tmp/cmpl.T27400.mps' read.
Read time = 0.11 sec. (16.18 ticks)
CPLEX> New value for mixed integer optimality gap tolerance: 0.007
CPLEX> CPLEX> CPXPARAM_Read_APIEncoding                        "UTF-8"
CPXPARAM_MIP_Tolerances_MIPGap                   0.0070000000000000001
Tried aggregator 3 times.
MIP Presolve eliminated 65026 rows and 42604 columns.
MIP Presolve modified 6739 coefficients.
Aggregator did 1424 substitutions.
Reduced MIP has 5715 rows, 4165 columns, and 17611 nonzeros.
Reduced MIP has 2828 binaries, 0 generals, 0 SOSs, and 0 indicators.
Presolve time = 0.10 sec. (84.18 ticks)
Found incumbent of value 3832.784033 after 0.12 sec. (98.85 ticks)
Probing fixed 0 vars, tightened 457 bounds.
Probing time = 0.04 sec. (13.08 ticks)
Tried aggregator 1 time.
MIP Presolve modified 1208 coefficients.
Reduced MIP has 5715 rows, 4165 columns, and 17611 nonzeros.
Reduced MIP has 2996 binaries, 0 generals, 0 SOSs, and 0 indicators.
Presolve time = 0.02 sec. (13.49 ticks)
Probing time = 0.01 sec. (2.76 ticks)
Clique table members: 2378.
MIP emphasis: balance optimality and feasibility.
MIP search method: dynamic search.
Parallel mode: none, using 1 thread.
Root relaxation solution time = 0.15 sec. (118.07 ticks)

        Nodes                                         Cuts/
   Node  Left     Objective  IInf  Best Integer    Best Bound    ItCnt     Gap

*     0+    0                         3832.7840     -361.7337           109.44%
      0     0     1753.4906   362     3832.7840     1753.4906     4264   54.25%
*     0+    0                         1778.1410     1753.4906             1.39%
      0     0     1755.1687   345     1778.1410     Cuts: 285     5081    1.29%
*     0+    0                         1774.4765     1755.1687             1.09%
      0     0     1755.9774   333     1774.4765     Cuts: 366     5891    1.04%
      0     0     1756.3688   332     1774.4765     Cuts: 321     6847    1.02%
*     0+    0                         1772.5821     1756.3688             0.91%
      0     0     1756.8941   337     1772.5821     Cuts: 339     7747    0.89%
      0     0     1757.3314   329     1772.5821     Cuts: 294     8545    0.86%
*     0+    0                         1770.8456     1757.3314             0.76%
      0     0     1757.6998   331     1770.8456     Cuts: 316     9282    0.74%
      0     0     1758.0851   333     1770.8456     Cuts: 300     9861    0.72%
      0     0     1758.4314   341     1770.8456     Cuts: 251    10295    0.70%
      0     0     1758.7631   336     1770.8456     Cuts: 243    10639    0.68%

Flow cuts applied:  489
Mixed integer rounding cuts applied:  499
Lift and project cuts applied:  2
Gomory fractional cuts applied:  6

Root node processing (before b&c):
  Real time             =    2.01 sec. (1594.05 ticks)
Sequential b&c:
  Real time             =    0.00 sec. (0.00 ticks)
                          ------------
Total (root+branch&cut) =    2.01 sec. (1594.05 ticks)

Solution pool: 5 solutions saved.

MIP - Integer optimal, tolerance (0.007/1e-06):  Objective =  1.7708455980e+03
Current MIP best bound =  1.7587630656e+03 (gap = 12.0825, 0.68%)
Solution time =    2.01 sec.  Iterations = 10639  Nodes = 0 (1)
Deterministic time = 1594.19 ticks  (793.56 ticks/sec)

CPLEX> Incumbent solution written to file '/tmp/cmpl.T27400.gsol'.
CPLEX> 
CMPL: Time used for model generation: 10 seconds
CMPL: Time used for solving the model: 4 seconds


Solution written to ASCII file: /media/sf_ltf/results/output_generated/2017-08-07-4/fair-nonlinear.sol

Solver - finished
